p edge 54 715
e 1 2
e 1 4
e 1 5
e 1 9
e 1 10
e 1 11
e 1 12
e 1 16
e 1 17
e 1 19
e 1 20
e 1 24
e 1 25
e 1 26
e 1 28
e 1 30
e 1 32
e 1 33
e 1 36
e 1 40
e 1 42
e 1 43
e 1 48
e 1 49
e 1 52
e 1 53
e 1 54
e 2 3
e 2 4
e 2 6
e 2 13
e 2 16
e 2 23
e 2 24
e 2 25
e 2 27
e 2 28
e 2 31
e 2 33
e 2 34
e 2 35
e 2 36
e 2 38
e 2 39
e 2 40
e 2 42
e 2 43
e 2 47
e 2 48
e 2 49
e 2 50
e 2 52
e 2 54
e 3 7
e 3 8
e 3 9
e 3 12
e 3 13
e 3 16
e 3 17
e 3 18
e 3 19
e 3 20
e 3 23
e 3 25
e 3 27
e 3 28
e 3 30
e 3 31
e 3 32
e 3 36
e 3 38
e 3 39
e 3 40
e 3 41
e 3 43
e 3 45
e 3 47
e 3 50
e 3 54
e 4 5
e 4 7
e 4 10
e 4 11
e 4 15
e 4 16
e 4 21
e 4 22
e 4 23
e 4 24
e 4 26
e 4 29
e 4 34
e 4 36
e 4 37
e 4 39
e 4 44
e 4 45
e 4 47
e 4 49
e 4 50
e 4 51
e 4 52
e 5 8
e 5 12
e 5 14
e 5 15
e 5 16
e 5 19
e 5 21
e 5 22
e 5 24
e 5 25
e 5 30
e 5 31
e 5 33
e 5 34
e 5 35
e 5 36
e 5 37
e 5 38
e 5 39
e 5 40
e 5 43
e 5 44
e 5 45
e 5 47
e 5 51
e 5 52
e 6 7
e 6 8
e 6 9
e 6 11
e 6 12
e 6 14
e 6 22
e 6 24
e 6 26
e 6 28
e 6 29
e 6 32
e 6 40
e 6 41
e 6 43
e 6 44
e 6 49
e 6 50
e 6 52
e 6 53
e 6 54
e 7 14
e 7 16
e 7 17
e 7 18
e 7 20
e 7 22
e 7 24
e 7 26
e 7 27
e 7 30
e 7 31
e 7 32
e 7 33
e 7 37
e 7 39
e 7 42
e 7 43
e 7 50
e 7 53
e 7 54
e 8 9
e 8 11
e 8 12
e 8 16
e 8 18
e 8 19
e 8 22
e 8 24
e 8 25
e 8 27
e 8 29
e 8 30
e 8 31
e 8 35
e 8 36
e 8 38
e 8 40
e 8 42
e 8 44
e 8 45
e 8 47
e 8 49
e 8 52
e 9 11
e 9 12
e 9 14
e 9 17
e 9 19
e 9 20
e 9 21
e 9 23
e 9 24
e 9 25
e 9 27
e 9 28
e 9 29
e 9 33
e 9 35
e 9 36
e 9 37
e 9 38
e 9 40
e 9 42
e 9 43
e 9 47
e 9 51
e 9 52
e 9 53
e 9 54
e 10 11
e 10 15
e 10 16
e 10 17
e 10 18
e 10 20
e 10 23
e 10 31
e 10 32
e 10 37
e 10 39
e 10 43
e 10 47
e 10 48
e 10 50
e 10 51
e 10 53
e 11 12
e 11 13
e 11 14
e 11 15
e 11 17
e 11 18
e 11 20
e 11 21
e 11 23
e 11 27
e 11 32
e 11 34
e 11 38
e 11 39
e 11 40
e 11 41
e 11 43
e 11 44
e 11 47
e 11 49
e 11 51
e 11 54
e 12 13
e 12 16
e 12 20
e 12 21
e 12 22
e 12 23
e 12 25
e 12 26
e 12 30
e 12 31
e 12 32
e 12 35
e 12 36
e 12 39
e 12 40
e 12 42
e 12 43
e 12 45
e 12 49
e 12 51
e 12 52
e 12 53
e 13 15
e 13 17
e 13 19
e 13 20
e 13 21
e 13 23
e 13 24
e 13 26
e 13 27
e 13 28
e 13 29
e 13 30
e 13 32
e 13 33
e 13 35
e 13 37
e 13 41
e 13 43
e 13 44
e 13 46
e 13 47
e 13 48
e 13 49
e 13 51
e 14 16
e 14 17
e 14 23
e 14 30
e 14 32
e 14 33
e 14 35
e 14 38
e 14 40
e 14 42
e 14 44
e 14 45
e 14 46
e 14 47
e 14 48
e 14 49
e 14 50
e 14 52
e 14 54
e 15 17
e 15 18
e 15 20
e 15 22
e 15 23
e 15 27
e 15 28
e 15 29
e 15 30
e 15 31
e 15 33
e 15 35
e 15 42
e 15 43
e 15 44
e 15 46
e 15 47
e 15 48
e 15 49
e 15 50
e 15 52
e 15 53
e 15 54
e 16 18
e 16 19
e 16 20
e 16 21
e 16 24
e 16 25
e 16 27
e 16 28
e 16 30
e 16 32
e 16 33
e 16 36
e 16 37
e 16 41
e 16 43
e 16 48
e 16 49
e 16 51
e 16 52
e 16 54
e 17 20
e 17 24
e 17 26
e 17 28
e 17 29
e 17 30
e 17 32
e 17 34
e 17 35
e 17 38
e 17 39
e 17 40
e 17 41
e 17 42
e 17 44
e 17 46
e 17 47
e 17 50
e 17 54
e 18 20
e 18 21
e 18 25
e 18 27
e 18 29
e 18 30
e 18 36
e 18 38
e 18 39
e 18 41
e 18 42
e 18 46
e 18 48
e 18 49
e 18 50
e 18 51
e 18 52
e 18 54
e 19 21
e 19 22
e 19 23
e 19 24
e 19 28
e 19 30
e 19 34
e 19 35
e 19 37
e 19 38
e 19 39
e 19 40
e 19 41
e 19 42
e 19 43
e 19 44
e 19 45
e 19 47
e 19 48
e 19 50
e 19 51
e 19 52
e 19 53
e 19 54
e 20 25
e 20 32
e 20 33
e 20 36
e 20 37
e 20 38
e 20 39
e 20 41
e 20 46
e 20 47
e 20 48
e 20 50
e 20 52
e 21 22
e 21 23
e 21 25
e 21 26
e 21 27
e 21 29
e 21 30
e 21 31
e 21 32
e 21 33
e 21 34
e 21 35
e 21 37
e 21 39
e 21 41
e 21 42
e 21 43
e 21 49
e 21 50
e 21 51
e 22 23
e 22 25
e 22 30
e 22 31
e 22 33
e 22 35
e 22 37
e 22 40
e 22 42
e 22 45
e 22 50
e 22 51
e 22 54
e 23 28
e 23 29
e 23 31
e 23 32
e 23 34
e 23 35
e 23 36
e 23 37
e 23 38
e 23 40
e 23 41
e 23 43
e 23 44
e 23 46
e 23 47
e 23 48
e 23 51
e 23 53
e 24 25
e 24 26
e 24 27
e 24 28
e 24 29
e 24 30
e 24 31
e 24 34
e 24 36
e 24 38
e 24 42
e 24 44
e 24 46
e 24 47
e 24 49
e 24 50
e 24 53
e 25 28
e 25 30
e 25 34
e 25 36
e 25 38
e 25 41
e 25 42
e 25 43
e 25 45
e 25 46
e 25 47
e 25 48
e 25 49
e 25 51
e 26 27
e 26 28
e 26 31
e 26 32
e 26 33
e 26 38
e 26 40
e 26 44
e 26 45
e 26 47
e 26 50
e 26 51
e 27 28
e 27 34
e 27 36
e 27 37
e 27 38
e 27 42
e 27 44
e 27 45
e 27 47
e 27 48
e 27 49
e 27 51
e 27 52
e 28 30
e 28 34
e 28 37
e 28 42
e 28 43
e 28 46
e 28 47
e 28 48
e 28 49
e 28 51
e 28 52
e 28 54
e 29 30
e 29 37
e 29 38
e 29 41
e 29 44
e 29 46
e 29 48
e 29 49
e 29 50
e 29 54
e 30 33
e 30 38
e 30 39
e 30 40
e 30 41
e 30 42
e 30 45
e 30 51
e 30 53
e 31 32
e 31 35
e 31 38
e 31 39
e 31 42
e 31 43
e 31 45
e 31 54
e 32 33
e 32 34
e 32 36
e 32 40
e 32 43
e 32 48
e 32 51
e 32 52
e 33 34
e 33 35
e 33 36
e 33 38
e 33 39
e 33 41
e 33 45
e 33 46
e 33 48
e 33 50
e 33 52
e 34 35
e 34 38
e 34 39
e 34 42
e 34 43
e 34 45
e 34 46
e 34 47
e 34 49
e 34 50
e 34 51
e 34 53
e 35 36
e 35 37
e 35 43
e 35 45
e 35 46
e 35 48
e 35 49
e 35 51
e 35 52
e 35 53
e 35 54
e 36 37
e 36 39
e 36 41
e 36 43
e 36 45
e 36 47
e 36 48
e 36 49
e 36 50
e 36 51
e 37 39
e 37 43
e 37 44
e 37 50
e 37 52
e 37 53
e 38 40
e 38 41
e 38 42
e 38 43
e 38 45
e 38 46
e 38 49
e 38 50
e 39 40
e 39 42
e 39 43
e 39 44
e 39 45
e 39 46
e 39 48
e 39 50
e 40 41
e 40 44
e 40 45
e 40 46
e 40 50
e 40 52
e 40 53
e 40 54
e 41 42
e 41 43
e 41 44
e 41 47
e 41 49
e 41 52
e 41 53
e 42 43
e 42 46
e 42 49
e 42 50
e 42 52
e 42 53
e 42 54
e 43 45
e 43 47
e 43 48
e 43 50
e 44 45
e 44 48
e 44 49
e 44 50
e 44 52
e 45 46
e 45 51
e 45 54
e 46 47
e 46 51
e 46 52
e 46 53
e 47 48
e 47 50
e 47 53
e 47 54
e 48 49
e 48 51
e 48 52
e 48 53
e 48 54
e 49 52
e 49 53
e 50 51
e 50 53
e 50 54
e 51 52
e 52 53
e 52 54
